Optimizer called with the following parameters:
{'focal_plane_mask': {'field_stop_radius': None,
                      'grayscale': True,
                      'num_pix': 150,
                      'radius': 3.6},
 'image': {'bandwidth': 0.2,
           'contrast': 10,
           'iwa': 3.5,
           'num_wavelengths': 5,
           'owa': 14.0,
           'resolution': 2},
 'instrument': {'inst_name': 'USORT'},
 'lyot_stop': {'alignment_tolerance': 0,
               'filename': 'USORT/LS_USORT_hex_ID0000_OD0990_ovsamp16_N0128.fits',
               'num_lyot_stops': 1},
 'method': {'edge_width_for_prior': 2,
            'ending_scale': 1,
            'force_no_hermitian_symmetry': False,
            'force_no_x_mirror_symmetry': False,
            'force_no_y_mirror_symmetry': False,
            'initial_throughput_estimate': 1,
            'maximize_planet_throughput': True,
            'num_throughput_iterations': 2,
            'starting_scale': 1},
 'pupil': {'N': 128,
           'filename': 'USORT/TelAp_USORT_offaxis_ovsamp16_N0128.fits'},
 'solver': {'crossover': 0,
            'method': 2,
            'num_threads': 0}}

File organization:
{'analysis_dir': '/user/bnickson/GitHub/LUVex_TelAps/aplc_optimization/surveys/usort_offaxis_survey_N0128_telserv3/FPM36_IWA35/analysis',
 'drivers_dir': '/user/bnickson/GitHub/LUVex_TelAps/aplc_optimization/surveys/usort_offaxis_survey_N0128_telserv3/FPM36_IWA35/drivers',
 'input_files_dir': '/user/bnickson/GitHub/LUVex_TelAps/aplc_optimization/masks',
 'log_dir': '/user/bnickson/GitHub/LUVex_TelAps/aplc_optimization/surveys/usort_offaxis_survey_N0128_telserv3/FPM36_IWA35/logs',
 'solution_dir': '/user/bnickson/GitHub/LUVex_TelAps/aplc_optimization/surveys/usort_offaxis_survey_N0128_telserv3/FPM36_IWA35/solutions',
 'survey_dir': '/user/bnickson/GitHub/LUVex_TelAps/aplc_optimization/surveys/usort_offaxis_survey_N0128_telserv3/FPM36_IWA35'}

Telescope pupil:
   Mirror symmetry in x: yes
   Mirror symmetry in y: yes

Lyot stop #0:
   Mirror symmetry in x: yes
Lyot stop #0:
   Mirror symmetry in y: yes

Complete APLC:
   Mirror symmetry in x: yes
   Mirror symmetry in y: yes

Starting optimization at scale 1 with 2726 variables and 2895 constraints.
Creating model...
Set parameter Username
Academic license - for non-commercial use only - expires 2024-10-25
Set parameter Crossover to value 0
Set parameter Method to value 2
Calculating and adding constraints...
Wavelength 1/5; Variable 1000/2726
Wavelength 1/5; Variable 2000/2726
Wavelength 2/5; Variable 1000/2726
Wavelength 2/5; Variable 2000/2726
Wavelength 3/5; Variable 1000/2726
Wavelength 3/5; Variable 2000/2726
Wavelength 4/5; Variable 1000/2726
Wavelength 4/5; Variable 2000/2726
Wavelength 5/5; Variable 1000/2726
Wavelength 5/5; Variable 2000/2726
Start optimization...
Gurobi Optimizer version 10.0.3 build v10.0.3rc0 (linux64)

CPU model: Intel(R) Xeon(R) Gold 6146 CPU @ 3.20GHz, instruction set [SSE2|AVX|AVX2|AVX512]
Thread count: 24 physical cores, 48 logical processors, using up to 24 threads

Optimize a model with 5790 rows, 2726 columns and 15783540 nonzeros
Model fingerprint: 0xe6fc5074
Coefficient statistics:
  Matrix range     [1e-13, 6e-04]
  Objective range  [4e-03, 1e+00]
  Bounds range     [1e+00, 1e+00]
  RHS range        [1e-05, 1e-05]
Presolve removed 0 rows and 0 columns (presolve time = 6s) ...
Presolve time: 7.29s
Presolved: 2726 rows, 8516 columns, 15786266 nonzeros
Error: invalid user locale; possible fix is to set the system environment
       variable 'LC_ALL' to a valid locale (e.g., to 'C')
Ordering time: 0.08s

Barrier statistics:
 AA' NZ     : 3.714e+06
 Factor NZ  : 3.717e+06 (roughly 34 MB of memory)
 Factor Ops : 6.756e+09 (less than 1 second per iteration)
 Threads    : 24

                  Objective                Residual
Iter       Primal          Dual         Primal    Dual     Compl     Time
   0   5.67020308e+03  0.00000000e+00  0.00e+00 0.00e+00  9.84e-01    10s
   1   2.90142750e+03  7.90356953e+02  0.00e+00 1.14e-01  2.93e-01    11s
   2   2.14813854e+03  9.33621572e+02  0.00e+00 9.24e-02  1.84e-01    12s
   3   1.83139742e+03  1.04768679e+03  0.00e+00 7.30e-02  1.33e-01    13s
   4   1.55827202e+03  1.08344149e+03  0.00e+00 5.80e-02  9.85e-02    14s
   5   1.45952381e+03  1.09658794e+03  0.00e+00 5.17e-02  8.32e-02    14s
   6   1.34838557e+03  1.10970789e+03  0.00e+00 4.31e-02  6.49e-02    15s
   7   1.24799250e+03  1.10879947e+03  0.00e+00 3.50e-02  4.84e-02    16s
   8   1.18083177e+03  1.10388322e+03  0.00e+00 3.32e-02  4.12e-02    17s
   9   1.15270282e+03  1.08940282e+03  0.00e+00 2.75e-02  3.40e-02    18s
  10   1.12452878e+03  1.08409520e+03  0.00e+00 2.58e-02  3.02e-02    18s
  11   1.10530664e+03  1.07963740e+03  0.00e+00 2.47e-02  2.77e-02    19s
  12   1.07421674e+03  1.05453611e+03  0.00e+00 1.81e-02  2.04e-02    20s
  13   1.03511720e+03  1.04789967e+03  0.00e+00 1.69e-02  1.62e-02    20s
  14   1.02354437e+03  1.04156037e+03  0.00e+00 1.58e-02  1.46e-02    21s
  15   9.97334889e+02  1.02976179e+03  0.00e+00 1.39e-02  1.11e-02    22s
  16   9.91108050e+02  1.02162189e+03  0.00e+00 1.26e-02  9.95e-03    22s
  17   9.80453660e+02  1.01146211e+03  0.00e+00 1.09e-02  8.22e-03    23s
  18   9.76579057e+02  1.00650010e+03  0.00e+00 1.01e-02  7.51e-03    24s
  19   9.71424936e+02  1.00107193e+03  0.00e+00 9.27e-03  6.69e-03    25s
  20   9.67505664e+02  9.95576944e+02  0.00e+00 8.45e-03  6.00e-03    26s
  21   9.60010295e+02  9.92235843e+02  0.00e+00 7.92e-03  5.23e-03    26s
  22   9.57696971e+02  9.87299904e+02  0.00e+00 7.26e-03  4.81e-03    27s
  23   9.51223506e+02  9.75874282e+02  0.00e+00 5.77e-03  3.73e-03    28s
  24   9.44005256e+02  9.57966120e+02  0.00e+00 3.33e-03  2.15e-03    29s
  25   9.42052580e+02  9.54665774e+02  0.00e+00 2.88e-03  1.81e-03    29s
  26   9.39530304e+02  9.51987321e+02  0.00e+00 2.52e-03  1.44e-03    30s
  27   9.37311615e+02  9.48977549e+02  0.00e+00 2.10e-03  1.08e-03    31s
  28   9.36371248e+02  9.43875507e+02  0.00e+00 1.39e-03  7.30e-04    32s
  29   9.34739372e+02  9.41132556e+02  0.00e+00 1.03e-03  4.69e-04    32s
  30   9.34286205e+02  9.39248126e+02  0.00e+00 7.84e-04  3.45e-04    33s
  31   9.33909201e+02  9.37739087e+02  0.00e+00 5.80e-04  2.40e-04    34s
  32   9.33686485e+02  9.36511471e+02  0.00e+00 4.19e-04  1.69e-04    35s
  33   9.33540376e+02  9.35147568e+02  0.00e+00 2.43e-04  1.01e-04    36s
  34   9.33395766e+02  9.34553507e+02  0.00e+00 1.65e-04  6.21e-05    37s
  35   9.33351090e+02  9.33952373e+02  0.00e+00 8.75e-05  3.47e-05    38s
  36   9.33328872e+02  9.33647336e+02  0.00e+00 4.87e-05  2.08e-05    38s
  37   9.33309433e+02  9.33495190e+02  0.00e+00 2.94e-05  1.32e-05    39s
  38   9.33293051e+02  9.33368563e+02  0.00e+00 1.33e-05  6.80e-06    40s
  39   9.33286863e+02  9.33309934e+02  0.00e+00 5.80e-06  3.81e-06    41s
  40   9.33278991e+02  9.33280913e+02  4.03e-07 2.03e-06  1.88e-06    42s
  41   9.33269571e+02  9.33272892e+02  3.70e-07 9.66e-07  6.83e-07    43s
  42   9.33267768e+02  9.33268015e+02  1.49e-07 3.18e-07  3.00e-07    44s
  43   9.33267765e+02  9.33267630e+02  3.10e-07 2.65e-07  2.80e-07    45s
  44   9.33267730e+02  9.33266371e+02  8.08e-07 9.48e-08  2.16e-07    47s
  45   9.33267692e+02  9.33266172e+02  1.21e-06 6.72e-08  2.02e-07    48s
  46   9.33267669e+02  9.33266133e+02  1.35e-06 6.19e-08  1.98e-07    49s
  47   9.33267653e+02  9.33266125e+02  1.79e-06 6.08e-08  1.97e-07    50s
  48   9.33267555e+02  9.33265870e+02  2.22e-06 2.76e-08  1.79e-07    51s
  49   9.33267480e+02  9.33265829e+02  3.50e-06 2.16e-08  1.71e-07    52s
  50   9.33267468e+02  9.33265818e+02  4.65e-06 2.00e-08  1.69e-07    53s
  51   9.33267434e+02  9.33265801e+02  5.46e-06 1.76e-08  1.65e-07    54s
  52   9.33267325e+02  9.33265720e+02  6.30e-06 6.95e-09  1.53e-07    56s
  53   9.33267267e+02  9.33265709e+02  6.16e-06 5.53e-09  1.49e-07    57s
  54   9.33267105e+02  9.33265705e+02  9.04e-06 5.13e-09  1.42e-07    57s
  55   9.33266928e+02  9.33265702e+02  1.23e-05 4.55e-09  1.35e-07    58s
  56   9.33266698e+02  9.33265694e+02  2.31e-05 3.20e-09  1.08e-07    59s
  57   9.33266611e+02  9.33265692e+02  2.53e-05 2.79e-09  9.90e-08    60s
  58   9.33266924e+02  9.33265691e+02  2.85e-05 2.67e-09  9.05e-08    61s
  59   9.33266971e+02  9.33265691e+02  3.04e-05 2.67e-09  9.05e-08    62s
  60   9.33266975e+02  9.33265677e+02  4.02e-05 1.19e-09  8.08e-08    63s
  61   9.33266790e+02  9.33265677e+02  4.43e-05 1.11e-09  7.44e-08    64s
  62   9.33266786e+02  9.33265677e+02  3.74e-05 1.11e-09  7.44e-08    65s
  63   9.33266829e+02  9.33265677e+02  3.67e-05 1.07e-09  7.23e-08    66s
  64   9.33267114e+02  9.33265677e+02  4.66e-05 9.79e-10  6.89e-08    68s
  65   9.33267193e+02  9.33265677e+02  4.50e-05 9.30e-10  6.75e-08    69s
  66   9.33266695e+02  9.33265677e+02  6.30e-05 8.48e-10  5.58e-08    70s
  67   9.33266613e+02  9.33265677e+02  8.08e-05 8.35e-10  5.46e-08    71s
  68   9.33266571e+02  9.33265677e+02  6.96e-05 7.82e-10  5.06e-08    72s
  69   9.33266343e+02  9.33265677e+02  7.69e-05 7.14e-10  4.35e-08    73s
  70   9.33266347e+02  9.33265677e+02  7.99e-05 6.78e-10  4.08e-08    74s
  71   9.33266364e+02  9.33265677e+02  7.87e-05 6.46e-10  3.98e-08    75s
  72   9.33266342e+02  9.33265677e+02  7.36e-05 6.12e-10  3.70e-08    76s
  73   9.33266349e+02  9.33265677e+02  7.75e-05 6.11e-10  3.66e-08    77s
  74   9.33266315e+02  9.33265677e+02  7.17e-05 5.53e-10  3.46e-08    79s
  75   9.33265904e+02  9.33265677e+02  5.67e-05 4.45e-10  2.72e-08    80s
  76   9.33265893e+02  9.33265677e+02  5.50e-05 4.14e-10  2.59e-08    81s
  77   9.33265953e+02  9.33265676e+02  5.16e-05 4.02e-10  2.55e-08    82s
  78   9.33265898e+02  9.33265676e+02  6.09e-05 3.95e-10  2.29e-08    83s
  79   9.33265904e+02  9.33265676e+02  6.00e-05 3.91e-10  2.28e-08    84s
  80   9.33265876e+02  9.33265676e+02  5.62e-05 3.83e-10  2.15e-08    85s
  81   9.33265910e+02  9.33265676e+02  7.22e-05 3.78e-10  2.04e-08    86s
  82   9.33265815e+02  9.33265676e+02  6.99e-05 3.65e-10  1.94e-08    87s
  83   9.33265727e+02  9.33265676e+02  6.01e-05 3.38e-10  1.67e-08    89s
  84   9.33265723e+02  9.33265676e+02  5.61e-05 3.35e-10  1.66e-08    90s
  85   9.33265715e+02  9.33265676e+02  5.68e-05 3.16e-10  1.64e-08    91s
  86   9.33265713e+02  9.33265676e+02  5.71e-05 3.15e-10  1.64e-08    92s
  87   9.33265746e+02  9.33265676e+02  5.03e-05 2.67e-10  1.48e-08    93s
  88   9.33265617e+02  9.33265676e+02  4.98e-05 2.09e-10  1.19e-08    94s
  89   9.33265527e+02  9.33265676e+02  4.89e-05 1.74e-10  1.08e-08    95s
  90   9.33265536e+02  9.33265676e+02  4.95e-05 1.73e-10  1.07e-08    96s
  91   9.33265814e+02  9.33265676e+02  5.53e-05 1.62e-10  9.54e-09    97s
  92   9.33265754e+02  9.33265676e+02  4.75e-05 1.62e-10  9.54e-09    98s
  93   9.33265847e+02  9.33265673e+02  5.08e-05 1.25e-10  8.19e-09    99s
  94   9.33265783e+02  9.33265674e+02  4.63e-05 1.18e-10  7.40e-09   100s
  95   9.33265546e+02  9.33265674e+02  3.55e-05 1.05e-10  4.88e-09   101s
  96   9.33265546e+02  9.33265674e+02  3.66e-05 1.04e-10  4.85e-09   103s
  97   9.33265527e+02  9.33265674e+02  3.46e-05 1.01e-10  4.69e-09   104s
  98   9.33265526e+02  9.33265674e+02  3.78e-05 9.51e-11  4.39e-09   105s
  99   9.33265544e+02  9.33265674e+02  3.67e-05 9.43e-11  4.15e-09   106s
 100   9.33265585e+02  9.33265674e+02  4.05e-05 9.43e-11  4.15e-09   107s
 101   9.33265718e+02  9.33265673e+02  4.10e-05 7.19e-11  3.51e-09   108s
 102   9.33265665e+02  9.33265673e+02  5.30e-05 6.78e-11  3.37e-09   109s
 103   9.33265454e+02  9.33265673e+02  5.91e-05 6.77e-11  3.32e-09   110s
 104   9.33265359e+02  9.33265673e+02  5.48e-05 6.67e-11  3.23e-09   111s
 105   9.33265317e+02  9.33265673e+02  4.97e-05 6.47e-11  3.11e-09   112s
 106   9.33265323e+02  9.33265673e+02  4.77e-05 6.27e-11  3.08e-09   113s
 107   9.33265423e+02  9.33265673e+02  3.51e-05 5.49e-11  2.76e-09   115s
 108   9.33265417e+02  9.33265674e+02  3.54e-05 5.04e-11  2.67e-09   116s
 109   9.33265701e+02  9.33265675e+02  3.51e-05 3.87e-11  2.29e-09   117s
 110   9.33265788e+02  9.33265675e+02  4.16e-05 3.65e-11  2.17e-09   119s
 111   9.33265788e+02  9.33265675e+02  4.18e-05 3.63e-11  2.13e-09   120s
 112   9.33265716e+02  9.33265675e+02  4.57e-05 3.63e-11  2.13e-09   121s
 113   9.33265669e+02  9.33265675e+02  4.13e-05 3.59e-11  2.02e-09   122s
 114   9.33265769e+02  9.33265674e+02  4.30e-05 3.45e-11  1.93e-09   123s
 115   9.33265754e+02  9.33265674e+02  4.64e-05 3.11e-11  1.84e-09   125s
 116   9.33265693e+02  9.33265674e+02  4.12e-05 2.99e-11  1.66e-09   126s
 117   9.33265804e+02  9.33265674e+02  6.11e-05 2.82e-11  1.23e-09   127s
 118   9.33265752e+02  9.33265674e+02  5.96e-05 2.69e-11  1.20e-09   128s
 119   9.33265750e+02  9.33265674e+02  6.04e-05 2.65e-11  1.17e-09   129s
 120   9.33265735e+02  9.33265674e+02  6.01e-05 2.65e-11  1.16e-09   130s
 121   9.33265694e+02  9.33265674e+02  6.08e-05 2.60e-11  1.14e-09   132s
 122   9.33265657e+02  9.33265674e+02  6.08e-05 2.59e-11  1.13e-09   133s
 123   9.33265573e+02  9.33265675e+02  5.43e-05 1.96e-11  9.63e-10   135s
 124   9.33265509e+02  9.33265675e+02  4.81e-05 1.93e-11  8.77e-10   136s
 125   9.33265493e+02  9.33265675e+02  4.64e-05 1.91e-11  8.69e-10   137s
 126   9.33265596e+02  9.33265675e+02  4.86e-05 1.91e-11  8.69e-10   138s
 127   9.33265462e+02  9.33265675e+02  3.90e-05 9.93e-12  8.41e-10   141s
 128   9.33265800e+02  9.33265675e+02  4.65e-05 9.86e-12  7.02e-10   142s
 129   9.33265759e+02  9.33265675e+02  4.58e-05 9.22e-12  6.79e-10   143s
 130   9.33265747e+02  9.33265675e+02  4.66e-05 9.23e-12  6.79e-10   144s
 131   9.33265900e+02  9.33265675e+02  5.13e-05 7.92e-12  6.45e-10   145s
 132   9.33265877e+02  9.33265675e+02  5.16e-05 7.58e-12  6.39e-10   146s
 133   9.33265877e+02  9.33265675e+02  5.08e-05 7.41e-12  6.35e-10   147s
 134   9.33265869e+02  9.33265675e+02  5.12e-05 7.39e-12  6.35e-10   148s
 135   9.33265887e+02  9.33265675e+02  5.44e-05 7.39e-12  6.34e-10   149s
 136   9.33265641e+02  9.33265675e+02  5.95e-05 6.93e-12  5.11e-10   151s
 137   9.33265628e+02  9.33265675e+02  5.49e-05 4.97e-12  2.29e-10   153s
 138   9.33265794e+02  9.33265675e+02  5.94e-05 4.97e-12  2.22e-10   154s
 139   9.33265681e+02  9.33265675e+02  5.31e-05 1.28e-12  1.42e-10   158s
 140   9.33265679e+02  9.33265675e+02  5.05e-05 1.17e-12  1.30e-10   160s
 141   9.33265651e+02  9.33265675e+02  4.84e-05 6.39e-13  1.16e-10   163s
 142   9.33264896e+02  9.33265676e+02  5.30e-05 5.21e-13  9.43e-11   166s

Barrier performed 142 iterations in 165.62 seconds (94.89 work units)
Sub-optimal termination - objective 9.33267730e+02

Optimization finished!
Restarting optimization for throughput iteration 1...
Gurobi Optimizer version 10.0.3 build v10.0.3rc0 (linux64)

CPU model: Intel(R) Xeon(R) Gold 6146 CPU @ 3.20GHz, instruction set [SSE2|AVX|AVX2|AVX512]
Thread count: 24 physical cores, 48 logical processors, using up to 24 threads

Optimize a model with 5790 rows, 2726 columns and 15783540 nonzeros
Model fingerprint: 0xe5a3430f
Coefficient statistics:
  Matrix range     [1e-13, 6e-04]
  Objective range  [4e-03, 1e+00]
  Bounds range     [1e+00, 1e+00]
  RHS range        [4e-06, 4e-06]
Presolve removed 0 rows and 0 columns (presolve time = 6s) ...
Presolve time: 7.18s
Presolved: 2726 rows, 8516 columns, 15786266 nonzeros
Ordering time: 0.07s

Barrier statistics:
 AA' NZ     : 3.714e+06
 Factor NZ  : 3.717e+06 (roughly 34 MB of memory)
 Factor Ops : 6.756e+09 (less than 1 second per iteration)
 Threads    : 24

                  Objective                Residual
Iter       Primal          Dual         Primal    Dual     Compl     Time
   0   5.57777259e+03  0.00000000e+00  0.00e+00 0.00e+00  9.73e-01    11s
   1   2.82234163e+03  7.69252834e+02  0.00e+00 1.20e-01  2.97e-01    11s
   2   2.02964340e+03  8.93350288e+02  0.00e+00 1.00e-01  1.90e-01    12s
   3   1.66353580e+03  1.01336871e+03  0.00e+00 7.93e-02  1.37e-01    13s
   4   1.48449754e+03  1.05525749e+03  0.00e+00 6.63e-02  1.09e-01    14s
   5   1.39510566e+03  1.06550008e+03  0.00e+00 5.95e-02  9.52e-02    14s
   6   1.30584608e+03  1.06865363e+03  0.00e+00 5.53e-02  8.52e-02    15s
   7   1.19809039e+03  1.06648459e+03  0.00e+00 4.46e-02  6.63e-02    16s
   8   1.12531490e+03  1.05855352e+03  0.00e+00 4.00e-02  5.61e-02    17s
   9   1.10533740e+03  1.04978120e+03  0.00e+00 3.69e-02  5.15e-02    18s
  10   1.09293995e+03  1.04615541e+03  0.00e+00 3.57e-02  4.94e-02    18s
  11   1.05710012e+03  1.03975773e+03  0.00e+00 3.42e-02  4.51e-02    19s
  12   1.02735253e+03  1.01812068e+03  0.00e+00 2.82e-02  3.71e-02    20s
  13   9.87309387e+02  9.94130048e+02  0.00e+00 2.22e-02  2.82e-02    21s
  14   9.57135973e+02  9.87286244e+02  0.00e+00 2.08e-02  2.45e-02    21s
  15   9.43033814e+02  9.74415793e+02  0.00e+00 1.87e-02  2.16e-02    22s
  16   9.30362504e+02  9.71804357e+02  0.00e+00 1.82e-02  2.04e-02    23s
  17   9.20329568e+02  9.68099258e+02  0.00e+00 1.77e-02  1.92e-02    23s
  18   9.16498494e+02  9.57381247e+02  0.00e+00 1.62e-02  1.75e-02    24s
  19   8.99709766e+02  9.44960238e+02  0.00e+00 1.47e-02  1.53e-02    24s
  20   8.94060348e+02  9.33430453e+02  0.00e+00 1.32e-02  1.38e-02    25s
  21   8.82951425e+02  9.18831186e+02  0.00e+00 1.12e-02  1.14e-02    26s
  22   8.71126996e+02  9.16073243e+02  0.00e+00 1.09e-02  9.83e-03    27s
  23   8.67707360e+02  9.11863252e+02  0.00e+00 1.04e-02  9.16e-03    27s
  24   8.63972551e+02  9.04108540e+02  0.00e+00 9.39e-03  8.21e-03    28s
  25   8.55439494e+02  8.97054742e+02  0.00e+00 8.51e-03  6.71e-03    29s
  26   8.51840297e+02  8.92993941e+02  0.00e+00 7.98e-03  5.98e-03    29s
  27   8.44441330e+02  8.83835617e+02  0.00e+00 6.82e-03  4.63e-03    30s
  28   8.43941226e+02  8.81625940e+02  0.00e+00 6.58e-03  4.49e-03    31s
  29   8.40997182e+02  8.64674703e+02  0.00e+00 4.56e-03  3.14e-03    31s
  30   8.36457850e+02  8.62373259e+02  0.00e+00 4.28e-03  2.57e-03    32s
  31   8.33621803e+02  8.60698940e+02  0.00e+00 4.06e-03  2.29e-03    33s
  32   8.30846449e+02  8.49232991e+02  0.00e+00 2.77e-03  1.45e-03    34s
  33   8.28647441e+02  8.41567188e+02  0.00e+00 1.89e-03  9.53e-04    35s
  34   8.27920259e+02  8.40431632e+02  0.00e+00 1.75e-03  8.33e-04    35s
  35   8.27388550e+02  8.36980544e+02  0.00e+00 1.36e-03  6.66e-04    36s
  36   8.26811737e+02  8.36659620e+02  0.00e+00 1.32e-03  5.99e-04    37s
  37   8.26215868e+02  8.33635274e+02  0.00e+00 9.84e-04  4.41e-04    37s
  38   8.25452955e+02  8.30844290e+02  0.00e+00 6.77e-04  2.75e-04    38s
  39   8.25365186e+02  8.29211408e+02  0.00e+00 5.02e-04  2.14e-04    39s
  40   8.25221950e+02  8.27886182e+02  0.00e+00 3.63e-04  1.66e-04    40s
  41   8.25081983e+02  8.27418948e+02  0.00e+00 3.14e-04  1.41e-04    40s
  42   8.24835998e+02  8.26230841e+02  0.00e+00 1.89e-04  8.77e-05    41s
  43   8.24734780e+02  8.25448447e+02  0.00e+00 1.07e-04  5.66e-05    42s
  44   8.24647110e+02  8.25052373e+02  0.00e+00 6.61e-05  3.78e-05    43s
  45   8.24541673e+02  8.24665618e+02  2.88e-07 2.57e-05  1.77e-05    44s
  46   8.24477560e+02  8.24530132e+02  3.92e-06 1.15e-05  8.13e-06    44s
  47   8.24437714e+02  8.24462271e+02  1.16e-05 4.29e-06  2.61e-06    45s
  48   8.24437208e+02  8.24460378e+02  2.31e-05 4.09e-06  2.50e-06    46s
  49   8.24435010e+02  8.24446236e+02  1.85e-05 2.53e-06  1.82e-06    47s
  50   8.24434596e+02  8.24443981e+02  1.73e-05 2.29e-06  1.71e-06    48s
  51   8.24433326e+02  8.24439920e+02  2.03e-05 1.85e-06  1.47e-06    50s
  52   8.24430824e+02  8.24437480e+02  2.36e-05 1.58e-06  1.19e-06    51s
  53   8.24430792e+02  8.24437372e+02  2.43e-05 1.57e-06  1.19e-06    52s
  54   8.24428784e+02  8.24435696e+02  2.72e-05 1.39e-06  9.45e-07    53s
  55   8.24428386e+02  8.24434961e+02  3.19e-05 1.31e-06  7.64e-07    54s
  56   8.24427729e+02  8.24434438e+02  4.20e-05 1.25e-06  7.01e-07    55s
  57   8.24427538e+02  8.24433098e+02  4.40e-05 1.11e-06  6.50e-07    56s
  58   8.24427758e+02  8.24433008e+02  5.31e-05 1.10e-06  6.33e-07    57s
  59   8.24427119e+02  8.24432039e+02  5.43e-05 9.96e-07  5.79e-07    58s
  60   8.24426525e+02  8.24430404e+02  6.29e-05 8.19e-07  5.14e-07    59s
  61   8.24425958e+02  8.24429128e+02  7.01e-05 6.81e-07  4.40e-07    60s
  62   8.24426015e+02  8.24429127e+02  7.11e-05 6.81e-07  4.40e-07    61s
  63   8.24425673e+02  8.24428460e+02  5.81e-05 6.09e-07  4.04e-07    62s
  64   8.24425634e+02  8.24428024e+02  1.12e-04 5.62e-07  3.84e-07    63s
  65   8.24424835e+02  8.24427267e+02  8.68e-05 4.80e-07  2.94e-07    64s
  66   8.24424207e+02  8.24426442e+02  8.90e-05 3.92e-07  2.40e-07    65s
  67   8.24423888e+02  8.24426329e+02  1.01e-04 3.80e-07  2.29e-07    66s
  68   8.24423795e+02  8.24426200e+02  1.01e-04 3.66e-07  2.24e-07    67s
  69   8.24423993e+02  8.24425998e+02  1.03e-04 3.44e-07  2.14e-07    68s
  70   8.24423616e+02  8.24425835e+02  1.06e-04 3.27e-07  2.00e-07    69s
  71   8.24423616e+02  8.24425722e+02  1.01e-04 3.15e-07  1.94e-07    70s
  72   8.24423440e+02  8.24425471e+02  8.63e-05 2.88e-07  1.69e-07    71s
  73   8.24423368e+02  8.24425323e+02  9.05e-05 2.72e-07  1.65e-07    72s
  74   8.24423368e+02  8.24425203e+02  8.34e-05 2.59e-07  1.59e-07    73s
  75   8.24423388e+02  8.24425135e+02  8.22e-05 2.51e-07  1.57e-07    74s
  76   8.24423417e+02  8.24424969e+02  7.46e-05 2.33e-07  1.46e-07    75s
  77   8.24424258e+02  8.24424627e+02  5.83e-05 1.96e-07  1.14e-07    77s
  78   8.24424214e+02  8.24424563e+02  5.83e-05 1.90e-07  1.11e-07    78s
  79   8.24424015e+02  8.24424561e+02  5.70e-05 1.89e-07  1.11e-07    79s
  80   8.24424058e+02  8.24424557e+02  7.52e-05 1.89e-07  1.11e-07    80s
  81   8.24423469e+02  8.24424230e+02  7.90e-05 1.54e-07  7.61e-08    81s
  82   8.24422941e+02  8.24424155e+02  8.09e-05 1.46e-07  7.23e-08    83s
  83   8.24423371e+02  8.24423869e+02  8.64e-05 1.15e-07  5.65e-08    85s
  84   8.24422965e+02  8.24423308e+02  8.36e-05 5.49e-08  3.59e-08    86s
  85   8.24423156e+02  8.24423249e+02  8.29e-05 4.84e-08  3.29e-08    88s
  86   8.24423096e+02  8.24423248e+02  8.48e-05 4.84e-08  3.29e-08    89s
  87   8.24423131e+02  8.24423248e+02  8.11e-05 4.83e-08  3.29e-08    90s
  88   8.24423133e+02  8.24423248e+02  8.04e-05 4.83e-08  3.29e-08    91s
  89   8.24422589e+02  8.24423167e+02  7.63e-05 3.99e-08  2.86e-08    93s
  90   8.24422645e+02  8.24423155e+02  9.99e-05 3.86e-08  2.78e-08    94s
  91   8.24422629e+02  8.24423143e+02  1.06e-04 3.73e-08  2.64e-08    96s
  92   8.24423014e+02  8.24423128e+02  1.06e-04 3.58e-08  2.55e-08    98s
  93   8.24423007e+02  8.24423129e+02  1.02e-04 3.58e-08  2.55e-08    99s
  94   8.24423039e+02  8.24423128e+02  1.03e-04 3.57e-08  2.54e-08   101s
  95   8.24423778e+02  8.24423083e+02  1.27e-04 3.06e-08  2.22e-08   102s
  96   8.24423874e+02  8.24423082e+02  1.34e-04 3.06e-08  2.18e-08   104s
  97   8.24423641e+02  8.24423041e+02  1.33e-04 2.61e-08  1.86e-08   107s
  98   8.24423220e+02  8.24422999e+02  1.14e-04 2.17e-08  1.38e-08   108s
  99   8.24423219e+02  8.24422996e+02  1.12e-04 2.14e-08  1.37e-08   109s
 100   8.24423267e+02  8.24422975e+02  1.07e-04 1.93e-08  1.28e-08   111s
 101   8.24423259e+02  8.24422970e+02  1.09e-04 1.87e-08  1.26e-08   112s
 102   8.24423224e+02  8.24422966e+02  1.17e-04 1.83e-08  1.24e-08   114s
 103   8.24423246e+02  8.24422959e+02  1.17e-04 1.75e-08  1.19e-08   115s
 104   8.24423175e+02  8.24422958e+02  1.37e-04 1.74e-08  1.17e-08   116s
 105   8.24423171e+02  8.24422948e+02  1.35e-04 1.63e-08  1.13e-08   117s
 106   8.24423248e+02  8.24422945e+02  1.43e-04 1.60e-08  1.07e-08   118s
 107   8.24423322e+02  8.24422939e+02  1.40e-04 1.53e-08  1.02e-08   119s
 108   8.24423272e+02  8.24422937e+02  1.39e-04 1.52e-08  1.00e-08   121s
 109   8.24423313e+02  8.24422936e+02  1.44e-04 1.50e-08  9.81e-09   122s
 110   8.24423374e+02  8.24422934e+02  1.35e-04 1.48e-08  9.48e-09   123s
 111   8.24423369e+02  8.24422926e+02  1.34e-04 1.39e-08  9.24e-09   124s
 112   8.24423365e+02  8.24422924e+02  1.40e-04 1.38e-08  9.20e-09   125s
 113   8.24423398e+02  8.24422920e+02  1.42e-04 1.34e-08  9.02e-09   126s
 114   8.24423368e+02  8.24422920e+02  1.71e-04 1.34e-08  9.01e-09   127s
 115   8.24423360e+02  8.24422918e+02  1.68e-04 1.32e-08  8.89e-09   128s
 116   8.24423424e+02  8.24422911e+02  1.66e-04 1.25e-08  8.67e-09   129s
 117   8.24422863e+02  8.24422911e+02  1.45e-04 1.25e-08  8.59e-09   130s
 118   8.24422759e+02  8.24422911e+02  1.40e-04 1.24e-08  8.48e-09   131s
 119   8.24422757e+02  8.24422911e+02  1.41e-04 1.24e-08  8.47e-09   132s
 120   8.24422739e+02  8.24422911e+02  1.45e-04 1.24e-08  8.46e-09   132s
 121   8.24422731e+02  8.24422911e+02  1.44e-04 1.24e-08  8.45e-09   134s
 122   8.24422746e+02  8.24422907e+02  9.90e-05 1.20e-08  7.03e-09   136s
 123   8.24422733e+02  8.24422904e+02  9.93e-05 1.17e-08  6.92e-09   137s
 124   8.24422751e+02  8.24422904e+02  9.85e-05 1.17e-08  6.89e-09   138s
 125   8.24422524e+02  8.24422904e+02  9.54e-05 1.17e-08  6.89e-09   139s
 126   8.24422491e+02  8.24422904e+02  9.20e-05 1.17e-08  6.89e-09   141s
 127   8.24422483e+02  8.24422904e+02  9.16e-05 1.17e-08  6.89e-09   142s
 128   8.24422459e+02  8.24422904e+02  9.33e-05 1.17e-08  6.89e-09   143s
 129   8.24422421e+02  8.24422894e+02  9.53e-05 1.06e-08  6.52e-09   145s
 130   8.24422291e+02  8.24422881e+02  9.18e-05 9.12e-09  6.07e-09   146s
 131   8.24422567e+02  8.24422880e+02  8.97e-05 9.07e-09  5.78e-09   147s
 132   8.24422586e+02  8.24422880e+02  8.84e-05 8.98e-09  5.75e-09   148s
 133   8.24422748e+02  8.24422876e+02  8.21e-05 8.63e-09  5.38e-09   150s
 134   8.24422810e+02  8.24422872e+02  8.18e-05 8.10e-09  5.11e-09   151s
 135   8.24422426e+02  8.24422866e+02  1.74e-04 7.52e-09  4.63e-09   153s
 136   8.24422411e+02  8.24422862e+02  1.68e-04 7.11e-09  4.43e-09   154s
 137   8.24423499e+02  8.24422860e+02  1.32e-04 6.90e-09  3.47e-09   155s
 138   8.24423495e+02  8.24422858e+02  1.31e-04 6.70e-09  3.41e-09   156s
 139   8.24423493e+02  8.24422854e+02  1.29e-04 6.23e-09  3.28e-09   157s
 140   8.24423479e+02  8.24422854e+02  1.28e-04 6.20e-09  3.27e-09   158s
 141   8.24423405e+02  8.24422848e+02  1.65e-04 5.59e-09  3.05e-09   159s
 142   8.24423348e+02  8.24422820e+02  1.62e-04 2.75e-09  2.17e-09   160s
 143   8.24423263e+02  8.24422820e+02  1.55e-04 2.70e-09  2.13e-09   161s
 144   8.24423263e+02  8.24422820e+02  1.53e-04 2.64e-09  2.10e-09   163s
 145   8.24423205e+02  8.24422819e+02  1.51e-04 2.56e-09  2.06e-09   164s
 146   8.24423216e+02  8.24422819e+02  1.52e-04 2.56e-09  2.06e-09   164s
 147   8.24423131e+02  8.24422818e+02  1.42e-04 2.39e-09  1.97e-09   166s
 148   8.24423130e+02  8.24422818e+02  1.44e-04 2.39e-09  1.97e-09   167s
 149   8.24423281e+02  8.24422818e+02  1.04e-04 2.39e-09  1.97e-09   168s
 150   8.24423709e+02  8.24422817e+02  1.59e-04 2.31e-09  1.89e-09   169s
 151   8.24423712e+02  8.24422817e+02  1.59e-04 2.31e-09  1.89e-09   170s
 152   8.24423395e+02  8.24422810e+02  1.52e-04 1.65e-09  1.57e-09   173s
 153   8.24424054e+02  8.24422809e+02  2.13e-04 1.54e-09  1.24e-09   174s
 154   8.24424001e+02  8.24422809e+02  1.50e-04 1.52e-09  1.04e-09   175s
 155   8.24423898e+02  8.24422809e+02  1.39e-04 1.48e-09  1.00e-09   177s
 156   8.24423876e+02  8.24422809e+02  1.38e-04 1.44e-09  9.60e-10   179s
 157   8.24423817e+02  8.24422809e+02  1.78e-04 1.44e-09  9.44e-10   181s
 158   8.24423664e+02  8.24422805e+02  1.58e-04 1.13e-09  8.84e-10   182s
 159   8.24423779e+02  8.24422805e+02  1.51e-04 1.13e-09  8.85e-10   183s
 160   8.24423680e+02  8.24422805e+02  1.49e-04 1.13e-09  8.83e-10   184s
 161   8.24423305e+02  8.24422805e+02  1.30e-04 1.08e-09  8.28e-10   185s
 162   8.24423300e+02  8.24422805e+02  1.28e-04 1.05e-09  8.14e-10   186s
 163   8.24423268e+02  8.24422805e+02  1.29e-04 1.04e-09  8.08e-10   188s
 164   8.24423279e+02  8.24422802e+02  1.13e-04 8.10e-10  7.31e-10   190s
 165   8.24423249e+02  8.24422801e+02  1.35e-04 7.86e-10  7.09e-10   191s
 166   8.24423252e+02  8.24422800e+02  1.35e-04 7.73e-10  7.05e-10   192s
 167   8.24423279e+02  8.24422799e+02  1.63e-04 7.33e-10  6.72e-10   194s
 168   8.24423185e+02  8.24422799e+02  1.49e-04 7.26e-10  6.30e-10   195s
 169   8.24423052e+02  8.24422799e+02  1.40e-04 6.53e-10  5.49e-10   197s
 170   8.24422849e+02  8.24422799e+02  1.35e-04 6.43e-10  5.34e-10   198s
 171   8.24422833e+02  8.24422799e+02  1.37e-04 6.43e-10  5.34e-10   199s
 172   8.24422771e+02  8.24422799e+02  1.16e-04 6.31e-10  5.03e-10   200s
 173   8.24422743e+02  8.24422799e+02  1.26e-04 6.24e-10  4.94e-10   201s
 174   8.24422637e+02  8.24422798e+02  1.11e-04 5.96e-10  4.41e-10   202s
 175   8.24422719e+02  8.24422799e+02  1.12e-04 3.83e-10  3.78e-10   203s
 176   8.24422824e+02  8.24422799e+02  1.07e-04 3.83e-10  3.77e-10   204s
 177   8.24423122e+02  8.24422799e+02  1.33e-04 3.79e-10  3.80e-10   205s
 178   8.24423023e+02  8.24422799e+02  1.27e-04 3.59e-10  3.56e-10   206s
 179   8.24422972e+02  8.24422797e+02  1.20e-04 2.71e-10  3.28e-10   208s
 180   8.24423178e+02  8.24422797e+02  1.05e-04 2.70e-10  3.10e-10   209s
 181   8.24423547e+02  8.24422797e+02  1.36e-04 2.17e-10  1.96e-10   210s
 182   8.24423611e+02  8.24422796e+02  1.31e-04 2.17e-10  1.94e-10   211s
 183   8.24423475e+02  8.24422796e+02  1.34e-04 2.15e-10  1.93e-10   212s
 184   8.24423516e+02  8.24422796e+02  1.43e-04 2.04e-10  1.89e-10   213s
 185   8.24423380e+02  8.24422796e+02  1.33e-04 2.01e-10  1.79e-10   214s
 186   8.24423285e+02  8.24422796e+02  1.35e-04 1.82e-10  1.66e-10   215s
 187   8.24423190e+02  8.24422796e+02  1.24e-04 1.80e-10  1.62e-10   216s
 188   8.24423442e+02  8.24422796e+02  1.48e-04 1.77e-10  1.56e-10   217s
 189   8.24423375e+02  8.24422796e+02  1.69e-04 1.73e-10  1.51e-10   218s
 190   8.24423331e+02  8.24422796e+02  1.69e-04 1.68e-10  1.48e-10   220s
 191   8.24423325e+02  8.24422796e+02  1.82e-04 1.63e-10  1.45e-10   221s
 192   8.24423329e+02  8.24422796e+02  1.81e-04 1.53e-10  1.43e-10   222s
 193   8.24423336e+02  8.24422796e+02  1.79e-04 1.51e-10  1.42e-10   223s
 194   8.24423489e+02  8.24422796e+02  1.67e-04 1.51e-10  1.40e-10   224s
 195   8.24423767e+02  8.24422796e+02  1.34e-04 1.39e-10  1.22e-10   226s
 196   8.24423903e+02  8.24422795e+02  1.34e-04 1.38e-10  1.21e-10   227s
 197   8.24423625e+02  8.24422795e+02  1.35e-04 1.02e-10  1.17e-10   228s
 198   8.24423627e+02  8.24422795e+02  1.29e-04 1.02e-10  1.15e-10   229s
 199   8.24423412e+02  8.24422795e+02  1.12e-04 9.99e-11  1.14e-10   230s
 200   8.24423527e+02  8.24422795e+02  1.09e-04 9.91e-11  1.10e-10   231s
 201   8.24423604e+02  8.24422794e+02  1.24e-04 9.87e-11  1.09e-10   232s
 202   8.24422831e+02  8.24422794e+02  1.42e-04 9.83e-11  1.13e-10   233s
 203   8.24422721e+02  8.24422794e+02  1.41e-04 9.24e-11  1.14e-10   234s
 204   8.24422721e+02  8.24422793e+02  1.29e-04 8.98e-11  1.06e-10   236s
 205   8.24422970e+02  8.24422794e+02  1.53e-04 6.70e-11  8.02e-11   237s
 206   8.24423131e+02  8.24422794e+02  1.39e-04 6.60e-11  7.73e-11   238s
 207   8.24423271e+02  8.24422794e+02  1.08e-04 5.47e-11  6.01e-11   239s
 208   8.24423235e+02  8.24422794e+02  1.14e-04 4.76e-11  5.44e-11   240s
 209   8.24422739e+02  8.24422795e+02  1.34e-04 4.59e-11  5.30e-11   241s
 210   8.24422870e+02  8.24422795e+02  1.24e-04 4.41e-11  5.09e-11   243s

Barrier performed 210 iterations in 242.58 seconds (138.55 work units)
Sub-optimal termination - objective 8.24435010e+02

/user/bnickson/GitHub/LUVex_TelAps/aplc_optimization/surveys/usort_offaxis_survey_N0128_telserv3/FPM36_IWA35/drivers/08_USORT_N128_FPM360M0150_IWA0350_OWA01400_C10_BW20_Nlam5_LS_ID_ID00_ODOD09_ls_0_ovsamp16_N.py:102: DeprecationWarning: circular_aperture is deprecated. Its new name is make_circular_aperture.
  dark_zone_mask = circular_aperture(img_owa * 2)(focal_grid) - circular_aperture(img_iwa * 2)(focal_grid)
/user/bnickson/GitHub/LUVex_TelAps/aplc_optimization/surveys/usort_offaxis_survey_N0128_telserv3/FPM36_IWA35/drivers/08_USORT_N128_FPM360M0150_IWA0350_OWA01400_C10_BW20_Nlam5_LS_ID_ID00_ODOD09_ls_0_ovsamp16_N.py:110: DeprecationWarning: circular_aperture is deprecated. Its new name is make_circular_aperture.
  focal_plane_mask = 1 - evaluate_supersampled(circular_aperture(2 * fpm_radius), focal_mask_grid, 8)
WARNING: VerifyWarning: Keyword name 'LS_ALIGN_TOl' is greater than 8 characters or contains characters not allowed by the FITS standard; a HIERARCH card will be created. [astropy.io.fits.card]
WARNING: VerifyWarning: Keyword name 'LS_NUM_STOPS' is greater than 8 characters or contains characters not allowed by the FITS standard; a HIERARCH card will be created. [astropy.io.fits.card]
WARNING: VerifyWarning: Keyword name 'PROG_START' is greater than 8 characters or contains characters not allowed by the FITS standard; a HIERARCH card will be created. [astropy.io.fits.card]
WARNING: VerifyWarning: Keyword name 'PROG_EDGE' is greater than 8 characters or contains characters not allowed by the FITS standard; a HIERARCH card will be created. [astropy.io.fits.card]
WARNING: VerifyWarning: Keyword name 'THRPT_ITER' is greater than 8 characters or contains characters not allowed by the FITS standard; a HIERARCH card will be created. [astropy.io.fits.card]
WARNING: VerifyWarning: Keyword name 'THRPT_ESTIM' is greater than 8 characters or contains characters not allowed by the FITS standard; a HIERARCH card will be created. [astropy.io.fits.card]
WARNING: VerifyWarning: Keyword name 'MAX_THRPT' is greater than 8 characters or contains characters not allowed by the FITS standard; a HIERARCH card will be created. [astropy.io.fits.card]
WARNING: VerifyWarning: Keyword name 'SLV_THRDS' is greater than 8 characters or contains characters not allowed by the FITS standard; a HIERARCH card will be created. [astropy.io.fits.card]
WARNING: VerifyWarning: Keyword name 'SLV_XOVER' is greater than 8 characters or contains characters not allowed by the FITS standard; a HIERARCH card will be created. [astropy.io.fits.card]
Optimization finished!
